100 8
267 620
506 722
631 516
375 806
108 919
91 646
331 450
512 374
383 713
841 791
685 801
799 904
413 269
297 677
415 631
64 348
462 672
814 280
710 801
80 387
781 850
784 491
343 99
238 219
399 618
87 924
486 322
86 549
37 537
181 804
130 514
505 441
62 908
820 759
801 506
935 337
417 226
65 577
632 757
413 845
350 517
41 632
409 133
191 455
150 411
788 141
705 924
728 767
160 499
741 954
316 507
428 392
466 671
835 946
352 361
120 421
369 467
3 540
230 325
952 453
141 780
195 826
207 356
483 373
9 602
424 498
328 482
90 470
131 680
184 603
174 620
391 268
788 500
215 853
817 412
402 91
553 821
104 777
211 893
310 678
649 402
296 552
809 135
187 352
266 378
208 900
270 633
20 556
811 343
322 361
787 923
742 230
742 846
255 782
637 789
726 519
154 770
222 350
632 801
333 154
